rect_size = array1d(1..1,
    [|3,3|3,3|3,4|4,3|3,5|5,3|3,6|6,3|3,7|7,3|3,8|8,3|3,9|9,3|6,3|3,6|]);

rect_offset = array1d(1..1, [|0,0 |0,0 |0,0 |0,0 |0,0 |0,0 |0,0 |0,0 ||0,0 |0,0 |0,0
    |0,0 |0,0 |0,0 |0,0 |0,0 |]);

shape = array1d(1..16, [{1}, {2}, {3}, {4}, {5}, {6}, {7}, {8}, {9}, {10},
    {11}, {12}, {13}, {14}, {15}, {16}]);

valid_shapes = array1d(1..8, [{1,2}, {3,4}, {5,6}, {7,8}, {9,10}, {11,12}, {13,14},
    {15,16}]);

w = 12;

n = 8;

